(set-logic QF_BV)
(declare-fun x0 () (_ BitVec 32))
(declare-fun x1 () (_ BitVec 32))
(declare-fun x2 () (_ BitVec 32))
(declare-fun x3 () (_ BitVec 32))
(declare-fun x4 () (_ BitVec 32))
(declare-fun x5 () (_ BitVec 32))
(declare-fun x6 () (_ BitVec 32))
(declare-fun x7 () (_ BitVec 32))
(declare-fun x8 () (_ BitVec 32))
(declare-fun x9 () (_ BitVec 32))
(declare-fun x10 () (_ BitVec 32))
(declare-fun x11 () (_ BitVec 32))
(declare-fun x12 () (_ BitVec 32))
(declare-fun x13 () (_ BitVec 8))
(declare-fun x14 () (_ BitVec 32))
(declare-fun x15 () (_ BitVec 32))
(declare-fun x16 () Bool)
(declare-fun x17 () (_ BitVec 32))
(declare-fun x18 () Bool)
(declare-fun x19 () (_ BitVec 32))
(declare-fun x20 () Bool)
(declare-fun x21 () (_ BitVec 32))
(declare-fun x22 () Bool)
(declare-fun x23 () (_ BitVec 32))
(declare-fun x24 () Bool)
(declare-fun x25 () (_ BitVec 32))
(declare-fun x26 () (_ BitVec 32))
(declare-fun x27 () (_ BitVec 32))
(declare-fun x28 () (_ BitVec 32))
(declare-fun x29 () (_ BitVec 32))
(declare-fun x30 () (_ BitVec 32))
(declare-fun x31 () Bool)
(declare-fun x32 () (_ BitVec 32))
(assert (let ((?v_207 ((_ zero_extend 24) x13))) (let ((?v_219 (bvadd x12 x27))) (let ((?v_186 (bvadd (bvadd ?v_219 (_ bv7 32)) x32))) (let ((?v_237 (bvsub (bvadd (bvadd ?v_186 (_ bv3 32)) ?v_207) (_ bv4269287 32)))) (and true (bvule x25 (_ bv4271190 32)) (bvule (_ bv8 32) x6) true (= x26 (_ bv1 32)) true x24 x20 x16 true (not (= x2 (_ bv0 32))) (not (= x8 (_ bv0 32))) true x31 (not (= x29 (_ bv1 32))) true (bvule x10 (_ bv846 32)) true (bvule x21 (_ bv846 32)) true (= x15 x1) (bvult (_ bv0 32) x3) true (= x9 x0) (bvult (_ bv0 32) x9) true (bvule x27 (bvsub x4 x30)) true (bvult x12 x28) true (bvult x32 (_ bv8 32)) true (bvule x17 x19) true (bvule x23 (_ bv846 32)) (bvule x7 x23) true (not (= ?v_207 (_ bv0 32))) x18 true (bvule x11 x14) x22 true (bvule x5 (_ bv846 32)) (bvule ?v_237 x5)))))))
(check-sat)
(exit)
